3 3 4 
3 1 1 1 1 19 2 1 4 1 39 2 40 3 37 4 43 2 4 1 130 2 126 3 131 4 122 2 2 3 1 55 3 52 4 47 3 1 4 62 
3 1 1 3 1 29 2 30 3 28 2 1 2 1 152 2 142 2 3 1 149 3 154 4 174 1 3 1 4 77 
3 2 1 1 1 51 2 4 1 56 2 65 3 63 4 59 2 2 3 1 168 3 160 4 162 3 3 1 194 2 172 4 190 2 2 4 1 81 2 98 3 90 4 92 3 3 2 95 3 95 4 107 
